32      4       
10      10      10      10      
0       0       0       0       0       4       2       4       5       7       
1       1       1       1       0       2       3       8       
9       0       7       3       1       13      6       12      13      15      16      17      18      20      22      23      24      25      26      
1       2       6       6       0       5       8       12      15      16      22      
9       0       5       7       3       7       9       10      11      15      17      20      24      
5       6       0       2       9       5       9       10      11      14      19      
6       5       2       1       0       5       9       18      19      22      24      
3       4       3       0       4       3       11      13      24      
1       3       5       0       3       3       21      28      30      
5       6       5       7       0       3       21      28      30      
7       0       2       7       3       4       28      29      30      31      
2       3       3       0       2       4       27      28      29      30      
7       7       4       3       0       2       21      28      
9       5       6       6       0       2       21      28      
2       3       0       2       5       3       27      30      31      
8       0       5       5       6       3       28      29      30      
7       0       2       4       4       3       27      28      29      
4       0       5       6       5       3       27      28      29      
3       2       3       0       4       1       21      
10      8       3       3       0       1       21      
7       0       2       2       1       2       27      29      
10      4       6       0       3       2       27      28      
5       3       5       9       0       2       27      28      
6       5       3       0       4       1       31      
10      4       0       3       7       1       31      
6       3       3       2       0       1       28      
7       0       3       5       4       1       32      
7       4       4       3       0       1       32      
4       4       4       0       3       1       32      
2       0       5       2       5       1       32      
3       2       6       3       0       1       32      
0       0       0       0       0       0       
